projected/problems_b25_r0_d7_m100_s666/_DIMACS/b25_d7_r0_s666_099.cnf
p cnf 230 379 25
c p show 1 2 3 4 5 6 7 8 9 10 11 12 13 14 15 16 17 18 19 20 21 22 23 24 25
-47 -6 -22 0
-48 22 0
-48 -12 0
-49 48 0
-49 47 0
-50 4 0
-50 25 0
-51 6 0
-51 20 0
-52 -20 0
-52 -6 0
-53 52 51 0
-54 53 0
-54 50 0
-55 54 49 0
-56 -25 0
-56 -17 0
-57 25 0
-57 1 0
-58 57 0
-58 56 0
-59 -5 0
-59 -10 0
-60 -8 -19 0
-61 60 0
-61 59 0
-62 61 0
-62 58 0
-63 62 0
-63 55 0
-64 19 8 0
-65 -20 0
-65 12 0
-66 65 0
-66 64 0
-67 9 -11 0
-68 -22 -14 0
-69 68 67 0
-70 69 0
-70 66 0
-71 -9 0
-71 11 0
-72 22 0
-72 14 0
-73 72 0
-73 71 0
-74 -19 0
-74 -8 0
-75 20 -12 0
-76 75 74 0
-77 76 0
-77 73 0
-78 77 70 0
-79 4 0
-79 19 0
-80 -5 -23 0
-81 80 79 0
-82 -22 10 0
-83 8 0
-83 -20 0
-84 83 0
-84 82 0
-85 84 0
-85 81 0
-86 85 0
-86 78 0
-87 86 0
-87 63 0
-88 1 0
-88 12 0
-89 17 -20 0
-90 89 88 0
-91 -17 0
-91 20 0
-92 -1 -12 0
-93 92 91 0
-94 93 0
-94 90 0
-95 18 -4 0
-96 1 0
-96 -11 0
-97 96 95 0
-98 97 0
-98 94 0
-99 -3 0
-99 -20 0
-100 10 0
-100 -2 0
-101 2 0
-101 -10 0
-102 101 100 0
-103 102 99 0
-104 12 0
-104 -6 0
-105 -24 -6 0
-106 105 0
-106 104 0
-107 106 103 0
-108 107 0
-108 98 0
-109 -14 0
-109 9 0
-110 16 0
-110 25 0
-111 110 109 0
-112 -14 17 0
-113 -22 0
-113 -24 0
-114 113 112 0
-115 114 0
-115 111 0
-116 2 9 0
-117 -5 -3 0
-118 117 0
-118 116 0
-119 5 0
-119 3 0
-120 -2 0
-120 -9 0
-121 120 0
-121 119 0
-122 121 118 0
-123 -17 0
-123 -7 0
-124 1 0
-124 -18 0
-125 124 123 0
-126 125 122 0
-127 126 115 0
-128 127 0
-128 108 0
-129 128 87 0
-130 -22 0
-130 -20 0
-131 7 0
-131 -6 0
-132 131 130 0
-133 4 -5 0
-134 -22 0
-134 -12 0
-135 134 0
-135 133 0
-136 135 132 0
-137 -2 15 0
-138 14 0
-138 6 0
-139 138 0
-139 137 0
-140 -12 1 0
-141 1 0
-141 7 0
-142 141 140 0
-143 142 0
-143 139 0
-144 143 136 0
-145 -3 -15 0
-146 -2 0
-146 10 0
-147 146 0
-147 145 0
-148 -11 8 0
-149 20 0
-149 -21 0
-150 149 148 0
-151 150 0
-151 147 0
-152 23 0
-152 -19 0
-153 19 0
-153 -23 0
-154 153 152 0
-155 12 0
-155 21 0
-156 155 0
-156 154 0
-157 15 -19 0
-158 -4 13 0
-159 158 157 0
-160 159 156 0
-161 -15 0
-161 19 0
-162 4 0
-162 -13 0
-163 162 0
-163 161 0
-164 -23 19 0
-165 -19 23 0
-166 165 0
-166 164 0
-167 -12 -21 0
-168 167 166 0
-169 168 163 0
-170 169 0
-170 160 0
-171 170 0
-171 151 0
-172 171 0
-172 144 0
-173 -3 -12 0
-174 -20 3 0
-175 174 173 0
-176 24 0
-176 3 0
-177 1 24 0
-178 177 176 0
-179 178 175 0
-180 -4 -3 0
-181 21 -5 0
-182 181 0
-182 180 0
-183 -8 0
-183 24 0
-184 -6 -21 0
-185 184 0
-185 183 0
-186 185 0
-186 182 0
-187 186 0
-187 179 0
-188 -11 14 0
-189 96 0
-189 188 0
-190 -1 11 0
-191 11 0
-191 -14 0
-192 191 0
-192 190 0
-193 192 189 0
-194 -7 0
-194 13 0
-195 -6 -10 0
-196 10 6 0
-197 196 0
-197 195 0
-198 197 0
-198 194 0
-199 198 193 0
-200 7 -13 0
-201 6 0
-201 10 0
-202 -10 0
-202 -6 0
-203 202 201 0
-204 203 200 0
-205 190 191 0
-206 188 96 0
-207 206 0
-207 205 0
-208 207 204 0
-209 208 0
-209 199 0
-210 -23 0
-210 -1 0
-211 5 0
-211 -2 0
-212 211 0
-212 210 0
-213 18 0
-213 -22 0
-214 11 19 0
-215 -19 -11 0
-216 215 0
-216 214 0
-217 216 0
-217 213 0
-218 217 212 0
-219 218 0
-219 209 0
-220 219 0
-220 187 0
-221 204 0
-221 207 0
-222 193 0
-222 198 0
-223 222 221 0
-224 23 1 0
-225 -5 2 0
-226 225 224 0
-227 -18 22 0
-228 -11 0
-228 -19 0
-229 19 0
-229 11 0
-230 229 228 0
-26 230 227 0
-27 26 0
-27 226 0
-37 27 223 0
-40 3 0
-40 12 0
-41 20 0
-41 -3 0
-42 41 0
-42 40 0
-43 -24 -3 0
-44 -1 0
-44 -24 0
-45 44 0
-45 43 0
-46 45 0
-46 42 0
-28 4 0
-28 3 0
-29 -21 0
-29 5 0
-30 29 28 0
-31 8 -24 0
-32 6 0
-32 21 0
-33 32 31 0
-34 33 30 0
-35 34 46 0
-36 35 0
-36 37 0
-38 36 220 0
-39 38 0
-39 172 0
39 129 0
-67 -71 0
-68 -72 0
-69 -73 0
-74 -64 0
-75 -65 0
-76 -66 0
-89 -91 0
-91 -89 0
-88 -92 0
-117 -119 0
-116 -120 0
-120 -116 0
-157 -161 0
-162 -158 0
-158 -162 0
-159 -163 0
-163 -159 0
-166 -154 0
-167 -155 0
-168 -156 0
-156 -168 0
-194 -200 0
-200 -194 0
-197 -203 0
-203 -197 0
-204 -198 0
-190 -96 0
-96 -190 0
-191 -188 0
-207 -193 0
-193 -207 0
-209 -223 0
-224 -210 0
-210 -224 0
-211 -225 0
-212 -226 0
-227 -213 0
-213 -227 0
-216 -230 0
-217 -26 0
-218 -27 0
-219 -37 0
-173 -40 0
-174 -41 0
-175 -42 0
-176 -43 0
-177 -44 0
-178 -45 0
-179 -46 0
-46 -179 0
-180 -28 0
-29 -181 0
-181 -29 0
-182 -30 0
-30 -182 0
-183 -31 0
-31 -183 0
-32 -184 0
-33 -185 0
-34 -186 0
-35 -187 0
