projected/problems_b25_r0_d7_m100_s666/b25_d7_r0_s666_099.smt2
(set-logic QF_UF)
(declare-fun A0 () Bool)
(declare-fun A1 () Bool)
(declare-fun A2 () Bool)
(declare-fun A3 () Bool)
(declare-fun A4 () Bool)
(declare-fun A5 () Bool)
(declare-fun A6 () Bool)
(declare-fun A7 () Bool)
(declare-fun A8 () Bool)
(declare-fun A9 () Bool)
(declare-fun A10 () Bool)
(declare-fun A11 () Bool)
(declare-fun A12 () Bool)
(declare-fun A13 () Bool)
(declare-fun A14 () Bool)
(declare-fun A15 () Bool)
(declare-fun A16 () Bool)
(declare-fun A17 () Bool)
(declare-fun A18 () Bool)
(declare-fun A19 () Bool)
(declare-fun A20 () Bool)
(declare-fun A21 () Bool)
(declare-fun A22 () Bool)
(declare-fun A23 () Bool)
(declare-fun A24 () Bool)
(assert (let ((.def_0 (and A5 A21))) (let ((.def_1 (not .def_0))) (let ((.def_2 (not A11))) (let ((.def_3 (and A21 .def_2))) (let ((.def_4 (and .def_3 .def_1))) (let ((.def_5 (and A3 A24))) (let ((.def_6 (not A19))) (let ((.def_7 (= .def_6 A5))) (let ((.def_8 (not .def_7))) (let ((.def_9 (and .def_8 .def_5))) (let ((.def_10 (or .def_9 .def_4))) (let ((.def_11 (or A24 A16))) (let ((.def_12 (not A0))) (let ((.def_13 (not A24))) (let ((.def_14 (or .def_13 .def_12))) (let ((.def_15 (or .def_14 .def_11))) (let ((.def_16 (not .def_15))) (let ((.def_17 (or A4 A9))) (let ((.def_18 (not .def_17))) (let ((.def_19 (and A7 A18))) (let ((.def_20 (not .def_19))) (let ((.def_21 (and .def_20 .def_18))) (let ((.def_22 (and .def_21 .def_16))) (let ((.def_23 (and .def_22 .def_10))) (let ((.def_24 (not .def_23))) (let ((.def_25 (not A10))) (let ((.def_26 (or A8 .def_25))) (let ((.def_27 (not A13))) (let ((.def_28 (not A21))) (let ((.def_29 (or .def_28 .def_27))) (let ((.def_30 (or .def_29 .def_26))) (let ((.def_31 (not A7))) (let ((.def_32 (not A18))) (let ((.def_33 (and .def_32 .def_31))) (let ((.def_34 (or A19 .def_2))) (let ((.def_35 (or .def_34 .def_33))) (let ((.def_36 (= .def_35 .def_30))) (let ((.def_37 (not .def_36))) (let ((.def_38 (not A3))) (let ((.def_39 (or .def_38 .def_32))) (let ((.def_40 (not A22))) (let ((.def_41 (not A4))) (let ((.def_42 (or .def_41 .def_40))) (let ((.def_43 (not .def_42))) (let ((.def_44 (and .def_43 .def_39))) (let ((.def_45 (not .def_44))) (let ((.def_46 (not A9))) (let ((.def_47 (and A21 .def_46))) (let ((.def_48 (and A7 .def_6))) (let ((.def_49 (not .def_48))) (let ((.def_50 (or .def_49 .def_47))) (let ((.def_51 (not .def_50))) (let ((.def_52 (and .def_51 .def_45))) (let ((.def_53 (and .def_52 .def_37))) (let ((.def_54 (not .def_53))) (let ((.def_55 (or .def_54 .def_24))) (let ((.def_56 (or A16 .def_6))) (let ((.def_57 (not .def_56))) (let ((.def_58 (and A0 A11))) (let ((.def_59 (= .def_58 .def_57))) (let ((.def_60 (not .def_59))) (let ((.def_61 (or A17 .def_38))) (let ((.def_62 (not .def_61))) (let ((.def_63 (and A0 .def_25))) (let ((.def_64 (not .def_63))) (let ((.def_65 (and .def_64 .def_62))) (let ((.def_66 (or .def_65 .def_60))) (let ((.def_67 (or A2 A19))) (let ((.def_68 (not .def_67))) (let ((.def_69 (= A1 A9))) (let ((.def_70 (not .def_69))) (let ((.def_71 (or .def_70 .def_68))) (let ((.def_72 (not A5))) (let ((.def_73 (and A11 .def_72))) (let ((.def_74 (not .def_73))) (let ((.def_75 (not A23))) (let ((.def_76 (or .def_75 .def_72))) (let ((.def_77 (not .def_76))) (let ((.def_78 (or .def_77 .def_74))) (let ((.def_79 (not .def_78))) (let ((.def_80 (or .def_79 .def_71))) (let ((.def_81 (not .def_80))) (let ((.def_82 (or .def_81 .def_66))) (let ((.def_83 (not A8))) (let ((.def_84 (or A13 .def_83))) (let ((.def_85 (and A15 A24))) (let ((.def_86 (not .def_85))) (let ((.def_87 (and .def_86 .def_84))) (let ((.def_88 (not .def_87))) (let ((.def_89 (or .def_27 A16))) (let ((.def_90 (or A21 A23))) (let ((.def_91 (not .def_90))) (let ((.def_92 (or .def_91 .def_89))) (let ((.def_93 (and .def_92 .def_88))) (let ((.def_94 (not .def_93))) (let ((.def_95 (not A2))) (let ((.def_96 (or .def_41 .def_95))) (let ((.def_97 (or A1 A8))) (let ((.def_98 (not .def_97))) (let ((.def_99 (= .def_98 .def_96))) (let ((.def_100 (not A6))) (let ((.def_101 (not A16))) (let ((.def_102 (and .def_101 .def_100))) (let ((.def_103 (not A17))) (let ((.def_104 (and A0 .def_103))) (let ((.def_105 (or .def_104 .def_102))) (let ((.def_106 (not .def_105))) (let ((.def_107 (and .def_106 .def_99))) (let ((.def_108 (and .def_107 .def_94))) (let ((.def_109 (or .def_108 .def_82))) (let ((.def_110 (and .def_109 .def_55))) (let ((.def_111 (not .def_110))) (let ((.def_112 (or A21 A19))) (let ((.def_113 (not .def_112))) (let ((.def_114 (or .def_100 A5))) (let ((.def_115 (not .def_114))) (let ((.def_116 (or .def_115 .def_113))) (let ((.def_117 (and .def_38 A4))) (let ((.def_118 (and .def_28 .def_2))) (let ((.def_119 (not .def_118))) (let ((.def_120 (or .def_119 .def_117))) (let ((.def_121 (not .def_120))) (let ((.def_122 (or .def_121 .def_116))) (let ((.def_123 (not A1))) (let ((.def_124 (or .def_123 A14))) (let ((.def_125 (not .def_124))) (let ((.def_126 (and A13 A5))) (let ((.def_127 (not .def_126))) (let ((.def_128 (or .def_127 .def_125))) (let ((.def_129 (not .def_128))) (let ((.def_130 (and A11 .def_12))) (let ((.def_131 (not .def_130))) (let ((.def_132 (or .def_12 .def_100))) (let ((.def_133 (not .def_132))) (let ((.def_134 (or .def_133 .def_131))) (let ((.def_135 (and .def_134 .def_129))) (let ((.def_136 (or .def_135 .def_122))) (let ((.def_137 (not A14))) (let ((.def_138 (or .def_95 .def_137))) (let ((.def_139 (not .def_138))) (let ((.def_140 (and .def_123 A9))) (let ((.def_141 (not .def_140))) (let ((.def_142 (or .def_141 .def_139))) (let ((.def_143 (not .def_142))) (let ((.def_144 (or .def_25 A7))) (let ((.def_145 (not .def_144))) (let ((.def_146 (not A20))) (let ((.def_147 (and A19 .def_146))) (let ((.def_148 (not .def_147))) (let ((.def_149 (and .def_148 .def_145))) (let ((.def_150 (not .def_149))) (let ((.def_151 (and .def_150 .def_143))) (let ((.def_152 (or A14 .def_32))) (let ((.def_153 (not A12))) (let ((.def_154 (and A3 .def_153))) (let ((.def_155 (not .def_154))) (let ((.def_156 (or .def_155 .def_152))) (let ((.def_157 (not .def_156))) (let ((.def_158 (= A18 A22))) (let ((.def_159 (or .def_2 .def_146))) (let ((.def_160 (or .def_159 .def_158))) (let ((.def_161 (not .def_160))) (let ((.def_162 (= .def_161 .def_157))) (let ((.def_163 (and .def_162 .def_151))) (let ((.def_164 (and .def_163 .def_136))) (let ((.def_165 (not .def_164))) (let ((.def_166 (and .def_100 A12))) (let ((.def_167 (not .def_166))) (let ((.def_168 (= .def_46 A5))) (let ((.def_169 (not .def_168))) (let ((.def_170 (or .def_169 .def_167))) (let ((.def_171 (or .def_12 A10))) (let ((.def_172 (not .def_171))) (let ((.def_173 (and A10 .def_27))) (let ((.def_174 (= .def_173 .def_172))) (let ((.def_175 (not .def_174))) (let ((.def_176 (= .def_175 .def_170))) (let ((.def_177 (or A22 A0))) (let ((.def_178 (not .def_177))) (let ((.def_179 (and A4 .def_123))) (let ((.def_180 (and .def_179 .def_178))) (let ((.def_181 (or .def_103 A21))) (let ((.def_182 (not .def_181))) (let ((.def_183 (= A18 .def_25))) (let ((.def_184 (and .def_183 .def_182))) (let ((.def_185 (or .def_184 .def_180))) (let ((.def_186 (and .def_185 .def_176))) (let ((.def_187 (or .def_95 .def_2))) (let ((.def_188 (or .def_6 A2))) (let ((.def_189 (or .def_188 .def_187))) (let ((.def_190 (and A23 A2))) (let ((.def_191 (or A0 A23))) (let ((.def_192 (or .def_191 .def_190))) (let ((.def_193 (or .def_192 .def_189))) (let ((.def_194 (not .def_193))) (let ((.def_195 (or .def_38 .def_95))) (let ((.def_196 (and .def_146 A4))) (let ((.def_197 (not .def_196))) (let ((.def_198 (and .def_197 .def_195))) (let ((.def_199 (not .def_198))) (let ((.def_200 (and .def_31 A23))) (let ((.def_201 (not .def_200))) (let ((.def_202 (and A5 A20))) (let ((.def_203 (or .def_202 .def_201))) (let ((.def_204 (or .def_203 .def_199))) (let ((.def_205 (or .def_204 .def_194))) (let ((.def_206 (= .def_205 .def_186))) (let ((.def_207 (or .def_206 .def_165))) (let ((.def_208 (not .def_207))) (let ((.def_209 (or .def_208 .def_111))) .def_209)))))))))))))))))))))))))))))))))))))))))))))))))))))))))))))))))))))))))))))))))))))))))))))))))))))))))))))))))))))))))))))))))))))))))))))))))))))))))))))))))))))))))))))))))))))))))))))))))))))))))))))))))))
(check-sat)
